50
    1    74    81
    2    38    42
    3    65    56
    4    28    25
    5    20    14
    6    68    63
    7    73    75
    8    31    41
    9    26    19
   10    15    12
   11    28    25
   12    39    37
   13    19    10
   14    89    86
   15     1     6
   16    39    46
   17    14     7
   18    11    18
   19    89    79
   20    11     8
   21    41    51
   22    62    53
   23    42    38
   24   102   100
   25    80    82
   26    73    70
   27    17    24
   28    61    57
   29    17    15
   30    97    97
   31    12    19
   32    85    77
   33    79    85
   34    42    35
   35     9     6
   36    22    15
   37   107    98
   38    17    14
   39    12     2
   40    79    80
   41    55    53
   42    72    63
   43    45    48
   44    54    59
   45    32    25
   46    58    56
   47    70    71
   48    24    15
   49    76    81
   50     1     2
373
